analyze/results_flowersnark/final_miplib_symretope_if_extended_generating_set_cpx_v802__settings_final_nopeek_norelabel_extend_norestarts__3__square37.mps.gz.sol
solution status: optimal solution found
objective value:                                   15
x_1_1_11                                            1 	(obj:1)
x_1_12_9                            0.999999999999994 	(obj:1)
x_1_21_17                           0.999999999999994 	(obj:1)
x_10_12_2                                           1 	(obj:1)
x_10_14_3                                           1 	(obj:1)
x_10_17_4                                           1 	(obj:1)
x_12_1_9                                            1 	(obj:1)
x_12_10_4                                           1 	(obj:1)
x_13_14_3                                           1 	(obj:1)
x_14_17_4                                           1 	(obj:1)
x_16_10_5                                           1 	(obj:1)
x_16_15_2                                           1 	(obj:1)
x_18_15_3                                           1 	(obj:1)
x_18_18_20                                          1 	(obj:1)
x_21_1_17                                           1 	(obj:1)
y_20                                                1 	(obj:0)
y_17                                 1.99999999999999 	(obj:0)
y_11                                                1 	(obj:0)
y_9                                  1.99999999999999 	(obj:0)
y_5                                                 1 	(obj:0)
y_4                                                 3 	(obj:0)
y_3                                                 3 	(obj:0)
y_2                                                 2 	(obj:0)
