analyze/results_flowersnark/final_miplib_symretope_if_extended_generating_set_cpx_v802__settings_final_nopeek_norelabel_extend_norestarts__3__square37.mps.gz.out
FILENAME:   /home/mcs001/s132664/testsets/IP/miplib2017/square37.mps.gz
SETTINGS:   settings_final_nopeek_norelabel_extend_norestarts
TIMELIMIT:  7200
OUTPUTNAME: final_miplib_symretope_if_extended_generating_set_cpx_v802__settings_final_nopeek_norelabel_extend_norestarts__3__
BINNAME:    bin/sbcs.linux.x86_64.gnu.opt.cpx
BASENAME:   square37.mps.gz
SEED:       3
@01 /home/mcs001/s132664/testsets/IP/miplib2017/square37.mps.gz ===========
@02 square37.mps.gz
@03 1686663748
SCIP version 8.0.2 [precision: 8 byte] [memory: block] [mode: optimized] [LP solver: CPLEX 20.1.0.0] [GitHash: 5f0473c]
Copyright (C) 2002-2022 Konrad-Zuse-Zentrum fuer Informationstechnik Berlin (ZIB)

Symretope propagation methods - (c) Jasper van Doornmalen, Christopher Hojny.
[GitHash: 2fd0484]

reading parameter file <../settings/settings_final_nopeek_norelabel_extend_norestarts.set> ...

Changed settings:
limits/time = 7200
limits/restarts = 0
misc/usesymmetry = 1
randomization/randomseedshift = 3
constraints/orbisack/sepafreq = -1
constraints/symresack/sepafreq = -1
propagating/symmetry/addsymresacks = TRUE
propagating/symmetry/detectsubgroups = FALSE
propagating/symmetry/relabelsymretopes = 0
propagating/symmetry/extendgenerators = TRUE
propagating/symmetry/ofsymcomptiming = 0
constraints/symretope/sepafreq = -1
constraints/symretope/peek = FALSE


solving problem ...

original problem has 49320 variables (49284 bin, 36 int, 0 impl, 0 cont) and 33150 constraints
presolving:
(round 1, fast)       31710 del vars, 31710 del conss, 0 add conss, 31746 chg bounds, 0 chg sides, 0 chg coeffs, 0 upgd conss, 0 impls, 1369 clqs
(round 2, exhaustive) 31710 del vars, 31710 del conss, 0 add conss, 31746 chg bounds, 0 chg sides, 0 chg coeffs, 1369 upgd conss, 0 impls, 1369 clqs
(round 3, exhaustive) 31710 del vars, 31734 del conss, 0 add conss, 31746 chg bounds, 24 chg sides, 0 chg coeffs, 1369 upgd conss, 0 impls, 1369 clqs
   (38.8s) probing: 1000/17574 (5.7%) - 0 fixings, 0 aggregations, 26501 implications, 0 bound changes
   (38.8s) probing: 1001/17574 (5.7%) - 0 fixings, 0 aggregations, 26531 implications, 0 bound changes
   (38.8s) probing aborted: 1000/1000 successive useless probings
   (41.0s) symmetry computation started: requiring (bin +, int +, cont +), (fixed: bin -, int -, cont -)
   (43.2s) symmetry computation finished: 3 generators found (max: 1500, log10 of symmetry group size: 0.9)
(round 4, exhaustive) 31710 del vars, 31734 del conss, 6 add conss, 31746 chg bounds, 24 chg sides, 0 chg coeffs, 1369 upgd conss, 26421 impls, 1479 clqs
presolving (5 rounds: 5 fast, 4 medium, 4 exhaustive):
 31710 deleted vars, 31734 deleted constraints, 6 added constraints, 31746 tightened bounds, 0 added holes, 24 changed sides, 0 changed coefficients
 26421 implications, 1479 cliques
presolved problem has 17610 variables (17574 bin, 36 int, 0 impl, 0 cont) and 1422 constraints
   1369 constraints of type <setppc>
     47 constraints of type <linear>
      5 constraints of type <orbisack>
      1 constraints of type <symretope>
transformed objective value is always integral (scale: 1)
Presolving Time: 40.70

 time | node  | left  |LP iter|LP it/n|mem/heur|mdpt |vars |cons |rows |cuts |sepa|confs|strbr|  dualbound   | primalbound  |  gap   | compl. 
p45.3s|     1 |     0 |   714 |     - |  clique|   0 |  17k|1422 |1424 |   0 |  0 |   0 |   0 | 4.000000e+00 | 2.800000e+01 | 600.00%| unknown
  100s|     1 |     0 |  4761 |     - |  3571M |   0 |  17k|1450 |1424 |   0 |  0 |  43 |   0 | 8.666667e+00 | 2.800000e+01 | 223.08%| unknown
  101s|     1 |     0 |  4761 |     - |  3572M |   0 |  17k|1450 |1424 |   0 |  0 |  43 |   0 | 8.666667e+00 | 2.800000e+01 | 223.08%| unknown
  390s|     1 |     2 | 21014 |     - |  3578M |   0 |  17k|1448 |1424 |   0 |  2 |  86 |  42 | 8.774881e+00 | 2.800000e+01 | 219.09%| unknown
* 466s|     3 |     2 | 26952 |11453.5 |strongbr|   2 |  17k|1438 |1417 |   0 |  1 |  86 |  72 | 8.774881e+00 | 1.600000e+01 |  82.34%| unknown
* 660s|    37 |     2 | 82960 |2192.1 |    LP  |  11 |  17k|1442 |1417 |   0 |  2 | 112 | 230 | 8.774881e+00 | 1.500000e+01 |  70.94%|  24.03%
  924s|   100 |    33 |212024 |2100.8 |  3612M |  16 |  17k|1450 |1417 |   0 |  2 | 225 | 301 | 9.559381e+00 | 1.500000e+01 |  56.91%|  51.62%
 1183s|   200 |    69 |382661 |1902.6 |  3650M |  30 |  17k|1603 |1417 |   0 |  0 | 461 | 377 | 1.105266e+01 | 1.500000e+01 |  35.71%|  60.58%
 1332s|   300 |    70 |490402 |1626.6 |  3658M |  39 |  17k|1648 |1417 |   0 |  2 | 531 | 439 | 1.129614e+01 | 1.500000e+01 |  32.79%|  63.04%
 1451s|   400 |    65 |589552 |1467.4 |  3664M |  45 |  17k|1675 |1417 |   0 |  2 | 604 | 518 | 1.175096e+01 | 1.500000e+01 |  27.65%|  66.35%
 1533s|   500 |    58 |680189 |1355.0 |  3672M |  48 |  17k|1695 |1417 |   0 |  2 | 649 | 567 | 1.232459e+01 | 1.500000e+01 |  21.71%|  70.11%
 1607s|   600 |    41 |756013 |1255.4 |  3677M |  48 |  17k|1719 |1417 |   0 |  0 | 701 | 632 | 1.243185e+01 | 1.500000e+01 |  20.66%|  77.93%
 1672s|   700 |    33 |822842 |1171.4 |  3686M |  59 |  17k|1717 |1417 |   0 |  0 | 741 | 675 | 1.269593e+01 | 1.500000e+01 |  18.15%|  83.09%

SCIP Status        : problem is solved [optimal solution found]
Solving Time (sec) : 1712.23
Solving Nodes      : 748
Primal Bound       : +1.50000000000000e+01 (3 solutions)
Dual Bound         : +1.50000000000000e+01
Gap                : 0.00 %
SCIP Status        : problem is solved [optimal solution found]
Total Time         :    1717.67
  solving          :    1712.23
  presolving       :      40.70 (included in solving)
  reading          :       5.44
  copying          :       2.68 (12 #copies) (minimal 0.21, maximal 0.24, average 0.22)
Original Problem   :
  Problem name     : square37
  Variables        : 49320 (49284 binary, 36 integer, 0 implicit integer, 0 continuous)
  Constraints      : 33150 initial, 33150 maximal
  Objective        : minimize, 49284 non-zeros (abs.min = 1, abs.max = 1)
Presolved Problem  :
  Problem name     : t_square37
  Variables        : 17610 (17574 binary, 36 integer, 0 implicit integer, 0 continuous)
  Constraints      : 1422 initial, 1779 maximal
  Objective        : minimize, 17430 non-zeros (abs.min = 1, abs.max = 1)
  Nonzeros         : 2761039 constraint, 2049556 clique table
Presolvers         :   ExecTime  SetupTime  Calls  FixedVars   AggrVars   ChgTypes  ChgBounds   AddHoles    DelCons    AddCons   ChgSides   ChgCoefs
  boundshift       :       0.00       0.00      0          0          0          0          0          0          0          0          0          0
  convertinttobin  :       0.00       0.00      0          0          0          0          0          0          0          0          0          0
  domcol           :       0.46       0.00      2          0          0          0          0          0          0          0          0          0
  dualagg          :       0.00       0.00      0          0          0          0          0          0          0          0          0          0
  dualcomp         :       0.00       0.00      0          0          0          0          0          0          0          0          0          0
  dualinfer        :       0.00       0.00      0          0          0          0          0          0          0          0          0          0
  dualsparsify     :       2.15       0.00      1          0          0          0          0          0          0          0          0          0
  gateextraction   :       0.00       0.00      0          0          0          0          0          0          0          0          0          0
  implics          :       0.00       0.00      4          0          0          0          0          0          0          0          0          0
  inttobinary      :       0.00       0.00      5          0          0          0          0          0          0          0          0          0
  qpkktref         :       0.00       0.00      0          0          0          0          0          0          0          0          0          0
  redvub           :       0.00       0.00      0          0          0          0          0          0          0          0          0          0
  sparsify         :       1.21       0.00      1          0          0          0          0          0          0          0          0          0
  stuffing         :       0.00       0.00      0          0          0          0          0          0          0          0          0          0
  trivial          :       0.01       0.00      5          0          0          0          0          0          0          0          0          0
  tworowbnd        :       0.00       0.00      0          0          0          0          0          0          0          0          0          0
  dualfix          :       0.01       0.00      5          0          0          0          0          0          0          0          0          0
  genvbounds       :       0.00       0.00      0          0          0          0          0          0          0          0          0          0
  probing          :      19.97       0.00      1          0          0          0          0          0          0          0          0          0
  pseudoobj        :       0.00       0.00      0          0          0          0          0          0          0          0          0          0
  symmetry         :       2.26       0.00      1          0          0          0          0          0          0          6          0          0
  vbounds          :       0.05       0.00      1          0          0          0          0          0          0          0          0          0
  knapsack         :       0.00       0.00      0          0          0          0          0          0          0          0          0          0
  setppc           :       1.19       0.02      9          0          0          0          0          0          0          0          0          0
  linear           :      12.21       2.35      9      31710          0          0      31746          0      31734          0         24          0
  orbisack         :       0.00       0.00      1          0          0          0          0          0          0          0          0          0
  symretope        :       0.00       0.00      1          0          0          0          0          0          0          0          0          0
  logicor          :       0.00       0.00      0          0          0          0          0          0          0          0          0          0
  bounddisjunction :       0.00       0.00      0          0          0          0          0          0          0          0          0          0
  benders          :       0.00       0.00      0          0          0          0          0          0          0          0          0          0
  components       :       0.45       0.00      1          0          0          0          0          0          0          0          0          0
  root node        :          -          -      -       1227          -          -       1268          -          -          -          -          -
Constraints        :     Number  MaxNumber  #Separate #Propagate    #EnfoLP    #EnfoRelax  #EnfoPS    #Check   #ResProp    Cutoffs    DomReds       Cuts    Applied      Conss   Children
  benderslp        :          0          0          0          0        460          0          0         27          0          0          0          0          0          0          0
  integral         :          0          0          0          0        460          0          0         27          0          0        300          0          0        267        756
  knapsack         :          0+         3          0       3762          0          0          0          0         47          0        112          0          0          0          0
  setppc           :       1369+      1385          1      12323          1          0          0         21     340534        112     549460          0          0          0          0
  linear           :         47         47          1      12211          1          0          0          2       2217          7      16694          0          0          0          0
  orbisack         :          5          5          0        199          0          0          0          2       1199         26       1499          0          0          0          0
  symretope        :          1          1          0        590          0          0          0          2         90          0        338          0          0          0          0
  logicor          :          0+       168          1       1826          0          0          0          0        270         80        315          0          0          0          0
  bounddisjunction :          0+       174          0       1772          0          0          0          0         36         15          6          0          0          0          0
  benders          :          0          0          0          0          1          0          0          3          0          0          0          0          0          0          0
  countsols        :          0          0          0          0          1          0          0          3          0          0          0          0          0          0          0
  components       :          0          0          0          0          0          0          0          0          0          0          0          0          0          0          0
Constraint Timings :  TotalTime  SetupTime   Separate  Propagate     EnfoLP     EnfoPS     EnfoRelax   Check    ResProp    SB-Prop
  benderslp        :       0.00       0.00       0.00       0.00       0.00       0.00       0.00       0.00       0.00       0.00
  integral         :     703.32       0.00       0.00       0.00     703.30       0.00       0.00       0.02       0.00       0.00
  knapsack         :       0.02       0.00       0.00       0.01       0.00       0.00       0.00       0.00       0.00       0.00
  setppc           :      11.43       0.02       0.19       4.30       0.00       0.00       0.00       0.01       1.67       5.23
  linear           :       5.53       2.35       0.00       2.76       0.00       0.00       0.00       0.00       0.04       0.39
  orbisack         :       0.19       0.00       0.00       0.10       0.00       0.00       0.00       0.00       0.02       0.07
  symretope        :       0.04       0.00       0.00       0.02       0.00       0.00       0.00       0.00       0.01       0.01
  logicor          :       0.35       0.00       0.00       0.26       0.00       0.00       0.00       0.00       0.01       0.08
  bounddisjunction :       0.17       0.00       0.00       0.06       0.00       0.00       0.00       0.00       0.02       0.09
  benders          :       0.00       0.00       0.00       0.00       0.00       0.00       0.00       0.00       0.00       0.00
  countsols        :       0.00       0.00       0.00       0.00       0.00       0.00       0.00       0.00       0.00       0.00
  components       :       0.00       0.00       0.00       0.00       0.00       0.00       0.00       0.00       0.00       0.00
Propagators        : #Propagate   #ResProp    Cutoffs    DomReds
  dualfix          :          4          0          0          0
  genvbounds       :          0          0          0          0
  nlobbt           :          0          0          0          0
  obbt             :          0          0          0          0
  probing          :          0          0          0          0
  pseudoobj        :       3215          0          0          0
  redcost          :       1826          0          0     471787
  rootredcost      :          3          0          0        777
  symmetry         :          0          0          0          0
  vbounds          :       4679          0          0          0
Propagator Timings :  TotalTime  SetupTime   Presolve  Propagate    ResProp    SB-Prop
  dualfix          :       0.01       0.00       0.01       0.00       0.00       0.00
  genvbounds       :       0.00       0.00       0.00       0.00       0.00       0.00
  nlobbt           :       0.00       0.00       0.00       0.00       0.00       0.00
  obbt             :       0.00       0.00       0.00       0.00       0.00       0.00
  probing          :      19.97       0.00      19.97       0.00       0.00       0.00
  pseudoobj        :       0.10       0.00       0.00       0.10       0.00       0.00
  redcost          :       2.71       0.00       0.00       2.71       0.00       0.00
  rootredcost      :       0.12       0.00       0.00       0.12       0.00       0.00
  symmetry         :       2.27       0.00       2.26       0.00       0.00       0.00
  vbounds          :       0.19       0.00       0.05       0.14       0.00       0.00
Orbital fixing     :
  vars fixed to 0  :          0
  vars fixed to 1  :          0
Conflict Analysis  :       Time      Calls    Success    DomReds  Conflicts   Literals    Reconvs ReconvLits   Dualrays   Nonzeros   LP Iters   (pool size: [10000,10000])
  propagation      :       1.23        218        179          -       1327     1839.0         11     2185.5          -          -          -
  infeasible LP    :       1.00         24          3          -          6     2305.0          2      365.0          3      519.3          0
  bound exceed. LP :      45.01        178        151          -        755     2144.7          2       38.5          7        1.0       2830
  strong branching :       0.00          0          0          -          0        0.0          0        0.0          -          -          0
  pseudo solution  :       0.00          0          0          -          0        0.0          0        0.0          -          -          -
  applied globally :      50.69          -          -          7        784      884.0          -          -         10          -          -
  applied locally  :          -          -          -          0         39     4156.5          -          -          0          -          -
Separators         :   ExecTime  SetupTime      Calls  RootCalls    Cutoffs    DomReds  FoundCuts ViaPoolAdd  DirectAdd    Applied ViaPoolApp  DirectApp      Conss
  cut pool         :       0.00          -          0          0          -          -          0          0          -          -          -          -          -    (maximal pool size:          0)
  aggregation      :       1.02       0.00         40          1          0          0          0          0          0          0          0          0          0
  > cmir           :          -          -          -          -          -          -          -          0          0          0          0          0          -
  > flowcover      :          -          -          -          -          -          -          -          0          0          0          0          0          -
  > knapsackcover  :          -          -          -          -          -          -          -          0          0          0          0          0          -
  cgmip            :       0.00       0.00          0          0          0          0          0          0          0          0          0          0          0
  clique           :      20.46       0.00          1          1          0          0          0          0          0          0          0          0          0
  closecuts        :       0.00       0.00          0          0          0          0          0          0          0          0          0          0          0
  convexproj       :       0.00       0.00          0          0          0          0          0          0          0          0          0          0          0
  disjunctive      :       0.00       0.00          0          0          0          0          0          0          0          0          0          0          0
  eccuts           :       0.00       0.00          0          0          0          0          0          0          0          0          0          0          0
  gauge            :       0.00       0.00          0          0          0          0          0          0          0          0          0          0          0
  gomory           :       2.37       0.00         40          1          0          0          0          0          0          0          0          0          0
  > gomorymi       :          -          -          -          -          -          -          -          0          0          0          0          0          -
  > strongcg       :          -          -          -          -          -          -          -          0          0          0          0          0          -
  impliedbounds    :       0.16       0.00         40          1          0          0          0          0          0          0          0          0          0
  interminor       :       0.00       0.00          0          0          0          0          0          0          0          0          0          0          0
  intobj           :       0.00       0.00          0          0          0          0          0          0          0          0          0          0          0
  mcf              :       0.02       0.00          1          1          0          0          0          0          0          0          0          0          0
  minor            :       0.00       0.00          0          0          0          0          0          0          0          0          0          0          0
  mixing           :       0.00       0.00         40          1          0          0          0          0          0          0          0          0          0
  oddcycle         :       0.00       0.00          0          0          0          0          0          0          0          0          0          0          0
  rapidlearning    :       0.01       0.00          0          0          0          0          0          0          0          0          0          0          0
  rlt              :       0.00       0.00          1          1          0          0          0          0          0          0          0          0          0
  zerohalf         :       0.34       0.00         40          1          0          0          0          0          0          0          0          0          0
Cutselectors       :   ExecTime  SetupTime      Calls  RootCalls   Selected     Forced   Filtered  RootSelec   RootForc   RootFilt 
  hybrid           :       0.00       0.00          0          0          0          0          0          0          0          0
Pricers            :   ExecTime  SetupTime      Calls       Vars
  problem variables:       0.00          -          0          0
Branching Rules    :   ExecTime  SetupTime   BranchLP  BranchExt   BranchPS    Cutoffs    DomReds       Cuts      Conss   Children
  allfullstrong    :       0.00       0.00          0          0          0          0          0          0          0          0
  cloud            :       0.00       0.00          0          0          0          0          0          0          0          0
  distribution     :       0.00       0.00          0          0          0          0          0          0          0          0
  fullstrong       :       0.00       0.00          0          0          0          0          0          0          0          0
  inference        :       0.00       0.00          0          0          0          0          0          0          0          0
  leastinf         :       0.00       0.00          0          0          0          0          0          0          0          0
  lookahead        :       0.00       0.00          0          0          0          0          0          0          0          0
  mostinf          :       0.00       0.00          0          0          0          0          0          0          0          0
  multaggr         :       0.00       0.00          0          0          0          0          0          0          0          0
  nodereopt        :       0.00       0.00          0          0          0          0          0          0          0          0
  pscost           :       0.00       0.00          0          0          0          0          0          0          0          0
  random           :       0.00       0.00          0          0          0          0          0          0          0          0
  relpscost        :     703.30       0.00        459          0          0          0        300          0        299        756
  vanillafullstrong:       0.00       0.00          0          0          0          0          0          0          0          0
Primal Heuristics  :   ExecTime  SetupTime      Calls      Found       Best
  LP solutions     :       0.00          -          -          1          1
  relax solutions  :       0.00          -          -          0          0
  pseudo solutions :       0.00          -          -          0          0
  strong branching :       0.01          -          -          1          1
  actconsdiving    :       0.00       0.00          0          0          0
  adaptivediving   :       6.07       0.00          7          0          0
  alns             :       2.89       0.00          5          0          0
  bound            :       0.00       0.00          0          0          0
  clique           :       1.05       0.00          1          1          1
  coefdiving       :       0.00       0.00          0          0          0
  completesol      :       0.00       0.00          0          0          0
  conflictdiving   :      15.39       0.00          5          0          0
  crossover        :       0.29       0.00          1          0          0
  dins             :       0.00       0.00          0          0          0
  distributiondivin:       2.46       0.00          3          0          0
  dps              :       0.00       0.00          0          0          0
  dualval          :       0.00       0.00          0          0          0
  farkasdiving     :       0.00       0.00          0          0          0
  feaspump         :     112.64       0.00          3          0          0
  fixandinfer      :       0.00       0.00          0          0          0
  fracdiving       :       2.34       0.00          5          0          0
  gins             :       0.39       0.00          0          0          0
  guideddiving     :       3.17       0.00          4          0          0
  indicator        :       0.00       0.00          0          0          0
  intdiving        :       0.00       0.00          0          0          0
  intshifting      :       0.00       0.00          0          0          0
  linesearchdiving :       4.59       0.00          4          0          0
  localbranching   :       0.00       0.00          0          0          0
  locks            :       0.32       0.00          1          0          0
  lpface           :       0.00       0.00          0          0          0
  mpec             :       0.00       0.00          0          0          0
  multistart       :       0.00       0.00          0          0          0
  mutation         :       0.00       0.00          0          0          0
  nlpdiving        :       0.00       0.00          0          0          0
  objpscostdiving  :      12.66       0.00          2          0          0
  octane           :       0.00       0.00          0          0          0
  ofins            :       0.00       0.00          0          0          0
  oneopt           :       0.15       0.00          3          0          0
  padm             :       0.00       0.00          0          0          0
  proximity        :       0.00       0.00          0          0          0
  pscostdiving     :       2.24       0.00          5          0          0
  randrounding     :       0.14       0.00         15          0          0
  rens             :       0.32       0.00          1          0          0
  reoptsols        :       0.00       0.00          0          0          0
  repair           :       0.00       0.00          0          0          0
  rins             :       1.65       0.00          5          0          0
  rootsoldiving    :       2.07       0.00          2          0          0
  rounding         :       1.68       0.00        247          0          0
  shiftandpropagate:       0.00       0.00          0          0          0
  shifting         :       1.94       0.00         44          0          0
  simplerounding   :       0.00       0.00          0          0          0
  subnlp           :       0.00       0.00          0          0          0
  trivial          :       0.09       0.00          2          0          0
  trivialnegation  :       0.00       0.00          0          0          0
  trustregion      :       0.00       0.00          0          0          0
  trysol           :       0.00       0.00          0          0          0
  twoopt           :       0.00       0.00          0          0          0
  undercover       :       0.00       0.00          0          0          0
  vbounds          :      38.75       0.00          1          0          0
  veclendiving     :       1.18       0.00          4          0          0
  zeroobj          :       0.00       0.00          0          0          0
  zirounding       :       0.08       0.00        378          0          0
  other solutions  :          -          -          -          0          -
LP                 :       Time      Calls Iterations  Iter/call   Iter/sec  Time-0-It Calls-0-It    ItLimit
  primal LP        :       8.94          1          0       0.00       0.00       8.94          1
  dual LP          :     676.59       1667     814077    1037.04    1203.20       7.84        882
  lex dual LP      :       0.00          0          0       0.00          -
  barrier LP       :       0.00          0          0       0.00          -       0.00          0
  resolve instable :       0.00          0          0       0.00          -
  diving/probing LP:     143.90         64      49951     780.48     347.12
  strong branching :     646.58        724     540568     746.64     836.04          -          -        967
    (at root node) :          -         42      35286     840.14          -
  conflict analysis:      19.00        283       2830      10.00     148.98
B&B Tree           :
  number of runs   :          1
  nodes            :        748 (378 internal, 370 leaves)
  feasible leaves  :          1
  infeas. leaves   :         66
  objective leaves :        303
  nodes (total)    :        748 (378 internal, 370 leaves)
  nodes left       :          0
  max depth        :         59
  max depth (total):         59
  backtracks       :        174 (23.3%)
  early backtracks :          0 (0.0%)
  nodes exc. ref.  :          0 (0.0%)
  delayed cutoffs  :          9
  repropagations   :        191 (1894 domain reductions, 4 cutoffs)
  avg switch length:       5.91
  switching time   :      13.92
Root Node          :
  First LP value   : +8.66666666666672e+00
  First LP Iters   :       4045 (255.16 Iter/sec)
  First LP Time    :      15.85
  Final Dual Bound : +8.77488061863194e+00
  Final Root Iters :       4045
  Root LP Estimate : +1.34266043379561e+01
Solution           :
  Solutions found  :          3 (3 improvements)
  First Solution   : +2.80000000000000e+01   (in run 1, after 1 nodes, 45.28 seconds, depth 4, found by <clique>)
  Gap First Sol.   :     600.00 %
  Gap Last Sol.    :      70.94 %
  Primal Bound     : +1.50000000000000e+01   (in run 1, after 37 nodes, 660.28 seconds, depth 5, found by <relaxation>)
  Dual Bound       : +1.50000000000000e+01
  Gap              :       0.00 %
Integrals          :      Total       Avg%
  primal-dual      :   73074.57      42.68
  primal-ref       :          -          - (not evaluated)
  dual-ref         :          -          - (not evaluated)
written solution information to file <results/final_miplib_symretope_if_extended_generating_set_cpx_v802__settings_final_nopeek_norelabel_extend_norestarts__3__square37.mps.gz.sol>
@04 1686665469
